experiment/data/hgs-res/Vrp-Set-Golden-n421/Vrp-Set-Golden-n421-hgs/0.hgs1.tour
Route #1: 162 222 277 282 337 342 397 364 390 339 304 330 279 219
Route #2: 44 104 70 164 130 224 223 163 103 43
Route #3: 169 229 190 289 250 344 403 402 343 284 283
Route #4: 288 348 349 310 404 370 409 408 407 398 347
Route #5: 48 49 108 167 218 185 125 158 107 98 47 38
Route #6: 45 105 165 170 225 230 285 245 278 227 168 109 10
Route #7: 171 231 290 345 350 405 365 305 338 287 228
Route #8: 5 65 110 111 112 11 52 51 50
Route #9: 291 351 410 411 412 371 417 311 352 292 232
Route #10: 55 115 116 176 177 131 172 71 117 57 56
Route #11: 236 296 356 415 416 357 251 297 191 237
Route #12: 179 239 298 353 306 366 406 355 346 295 286 235
Route #13: 59 119 178 233 238 293 246 186 226 175 166 106
Route #14: 53 58 113 118 173 126 66 6 46
Route #15: 299 359 360 312 377 372 420 419 418 413 358
Route #16: 16 76 136 137 132 72 12 60
Route #17: 120 180 240 300 252 317 376 375 316 257 192 197
Route #18: 174 181 241 301 354 255 294 195 234 135 75
Route #19: 17 77 196 256 315 414 361 373 318 313 258 253 198 193 138
Route #20: 13 1 73 18 78 133 121 61 114 15 54
Route #21: 200 187 260 247 320 379 378 319 259 199
Route #22: 20 80 67 145 204 127 140 139 79 19
Route #23: 205 265 325 307 380 367 385 384 383 324 264
Route #24: 24 84 143 194 182 254 203 144 85 7 25
Route #25: 2 62 81 86 141 122 134 83 74 23 14
Route #26: 33 93 153 128 208 267 326 381 362 374 323 314 263
Route #27: 146 201 206 261 242 302 321 266 207 147 87
Route #28: 148 188 268 327 386 387 328 248 273 213 212
Route #29: 21 26 27 28 8 88 68 152 92 32
Route #30: 331 382 391 392 393 368 388 308 333 332 272
Route #31: 29 3 89 34 94 149 123 63 82 31 22
Route #32: 35 95 154 209 214 269 243 183 202 151 142 91
Route #33: 155 215 274 329 334 389 363 303 322 271 262 211
Route #34: 216 276 336 309 401 369 396 395 394 335 275
Route #35: 41 9 101 160 161 129 156 69 96 36
Route #36: 221 189 281 249 341 400 399 340 280 220
Route #37: 37 4 64 124 150 99 90 39 30
Route #38: 42 97 102 157 217 184 244 270 210 159 100 40
Cost 1819.76
